&CONTROL
  calculation = 'scf'
  max_seconds = 1746
  outdir = './out/'
  prefix = 'aiida'
  pseudo_dir = './pseudo/'
  restart_mode = 'from_scratch'
  verbosity = 'high'
/
&SYSTEM
  do_cutoff_2d = .true.
  ecutrho =   3.2000000000d+02
  ecutwfc =   4.0000000000d+01
  ibrav = 0
  nat = 2
  ntyp = 2
/
&ELECTRONS
  conv_thr =   4.0000000000d-10
  electron_maxstep = 100
/
ATOMIC_SPECIES
Pb     207.2 Pb.pbe-dn-kjpaw_psl.0.2.2.UPF
Te     127.6 te_pbe_v1.uspp.F.UPF
ATOMIC_POSITIONS angstrom
Te          -0.0000000000       2.4891966533      11.6545634588 
Pb           0.0000000000      -0.0000000000       9.9594115481 
K_POINTS automatic
10 10 1 0 0 0
CELL_PARAMETERS angstrom
      4.3114150733      -0.0000000000       0.0000000000
     -2.1557075366       3.7337949797       0.0000000000
      0.0000000000       0.0000000000      21.6139750069
