&CONTROL
  calculation = 'scf'
  max_seconds = 1746
  outdir = './out/'
  prefix = 'aiida'
  pseudo_dir = './pseudo/'
  restart_mode = 'from_scratch'
  verbosity = 'high'
/
&SYSTEM
  degauss =   2.0000000000d-02
  do_cutoff_2d = .true.
  ecutrho =   4.0000000000d+02
  ecutwfc =   5.0000000000d+01
  ibrav = 0
  nat = 2
  ntyp = 1
  occupations = 'smearing'
  smearing = 'cold'
/
&ELECTRONS
  conv_thr =   4.0000000000d-10
  electron_maxstep = 100
/
ATOMIC_SPECIES
C      12.011 c_pbe_v1.2.uspp.F.UPF
ATOMIC_POSITIONS angstrom
C            0.0000000000       1.4237282980      10.0000002075 
C            0.0000000000       0.0000000000      10.0000000000 
K_POINTS automatic
16 16 1 0 0 0
CELL_PARAMETERS angstrom
      2.4659697484       0.0000000000       0.0000000000
     -1.2329848742       2.1355924471       0.0000000000
      0.0000000000       0.0000000000      20.0000002075
