&CONTROL
  calculation = 'scf'
  max_seconds = 1746
  outdir = './out/'
  prefix = 'aiida'
  pseudo_dir = './pseudo/'
  restart_mode = 'from_scratch'
  verbosity = 'high'
/
&SYSTEM
  do_cutoff_2d = .true.
  ecutrho =   4.4000000000d+02
  ecutwfc =   5.5000000000d+01
  ibrav = 0
  nat = 2
  ntyp = 2
/
&ELECTRONS
  conv_thr =   4.0000000000d-10
  electron_maxstep = 100
/
ATOMIC_SPECIES
B      10.811 B.pbe-n-kjpaw_psl.0.1.UPF
N      14.0067 N.pbe.theos.UPF
ATOMIC_POSITIONS angstrom
B            0.0000000000       1.4487451335      10.0000000000 
N            1.2546500894       0.7243725668      10.0000000000 
K_POINTS automatic
16 16 1 0 0 0
CELL_PARAMETERS angstrom
      2.5093001786       0.0000000000       0.0000000000
     -1.2546500893       2.1731177004       0.0000000000
      0.0000000000       0.0000000000      20.0000000000
