al
&inputph
  outdir='./tmp'
  prefix='al'
  fildyn='al.dyn',
  tr2_ph=1d-13,
  ldisp=.true.
  nq1=4
  nq2=4
  nq3=4
/
