al
&inputph
  outdir='./tmp'
  prefix='al'
  fildyn='dyn',
  tr2_ph=1d-16,
  ldisp=.true.
  nq1=4
  nq2=4
  nq3=4
/
