al
&INPUT
  fildyn = 'dyn'
  zasr = 'crystal'
  flfrc = 'fc'
/
