al
&INPUT
  fildyn = 'al.dyn'
  zasr = 'crystal'
  flfrc = 'al.fc'
/
