&CONTROL
  calculation= 'scf',
  restart_mode= 'from_scratch',
  prefix= 'al',
  outdir= './tmp',
  pseudo_dir= '/home/bonacc_m/Downloads/sg15_oncv_upf_2020-02-06'
/

&SYSTEM
  ibrav= 2,
  celldm(1) =  7.430521943924787
  nat= 1,
  ntyp= 1,
  ecutwfc= 50,
  ecutrho= 500,
  occupations= 'smearing',
  smearing= 'gaussian',
  degauss= 0.01
/

&ELECTRONS
  conv_thr= 1e-11
/

ATOMIC_SPECIES
  Al 26.981539 Al_ONCV_PBE-1.2.upf

ATOMIC_POSITIONS (alat)
  Al 0.00 0.00 0.00

K_POINTS (automatic)
  12 12 12  0 0 0