&CONTROL
  calculation = 'vc-relax',
  forc_conv_thr =   1.0000000000d-05,
  max_seconds =   6.1600000000d+04,
  outdir = './out/',
  prefix = 'aida',
  pseudo_dir = './pseudo/',
  restart_mode = 'from_scratch',
  verbosity = 'high',
  wf_collect = .true.,
/
&SYSTEM
  ecutrho =   6.0000000000d+02,
  ecutwfc =   6.0000000000d+01,
  ibrav = 0,
  nat = 5,
  ntyp = 3,
/
&ELECTRONS
  conv_thr =   1.0000000000d-11,
/
&IONS
/
&CELL
/
ATOMIC_SPECIES
Ba  137.330000 Ba.pbesol-spn-rrkjus_psl.0.2.3-tot-pslib030.UPF
O   15.999400 O.pbesol-n-rrkjus_psl.0.1-tested-pslib030.UPF
Ti  47.880000 Ti.pbesol-spn-rrkjus_psl.0.2.3-tot-pslib030.UPF
ATOMIC_POSITIONS angstrom
Ba          1.9888659888       1.9888659888       1.9888659888
Ti          0.0000000000       0.0000000000       0.0000000000
O           1.9888659888       0.0000000000       0.0000000000
O           0.0000000000       0.0000000000       1.9888659888
O           0.0000000000       1.9888659888       0.0000000000
K_POINTS automatic
6 6 6 0 0 0
CELL_PARAMETERS angstrom
      3.9777319775       0.0000000000       0.0000000000
      0.0000000000       3.9777319775       0.0000000000
      0.0000000000       0.0000000000       3.9777319775
