&INPUT
  loto_2d = .true.
  fildyn = 'DYN_MAT/dynamical-matrix-'
  flfrc = 'real_space_force_constants.dat'
  zasr = 'simple'
  prt_lr = .true.
/
