&CONTROL
  calculation = 'scf'
  max_seconds = 1746
  outdir = './out/'
  prefix = 'aiida'
  pseudo_dir = './pseudo/'
  restart_mode = 'from_scratch'
  verbosity = 'high'
/
&SYSTEM
  degauss =   2.0000000000d-02
  do_cutoff_2d = .true.
  ecutrho =   2.4000000000d+02
  ecutwfc =   3.5000000000d+01
  ibrav = 0
  nat = 3
  ntyp = 2
  occupations = 'smearing'
  smearing = 'cold'
/
&ELECTRONS
  conv_thr =   6.0000000000d-11
  electron_maxstep = 100
/
ATOMIC_SPECIES
Mo     95.94 Mo_ONCV_PBE-1.0.upf
S      32.066 s_pbe_v1.2.uspp.F.UPF
ATOMIC_POSITIONS angstrom
Mo           0.0000000000       1.8406963043      11.5773510440 
S            1.5940897602       0.9203481522      10.0188259936 
S            1.5940897602       0.9203481522      13.1358760945 
K_POINTS automatic
12 12 1 0 0 0
CELL_PARAMETERS angstrom
      3.1881795204       0.0000000000       0.0000000000
     -1.5940897602       2.7610444565       0.0000000000
      0.0000000000       0.0000000000      23.1547020881
