Graphite
&inputph
  outdir='/home/bonacc_m/Documents/phonons/example16/TMP_graphite'
  prefix='graphite'
  fildyn='graphite.dyn',
  tr2_ph=1d-16,
  ldisp=.true.
  !asr=.true.
  nq1=4
  nq2=4
  nq3=2
/
