Graphite
&INPUT
  fildyn = 'graphite.dyn'
  zasr = 'crystal'
  flfrc = 'graphite.fc'
/
