GaAs
&INPUT
  fildyn = 'GaAs.dyn'
  zasr = 'simple'
  flfrc = 'GaAs.fc'
/
