diamond
&INPUT
  fildyn = 'diamond.dyn'
  zasr = 'crystal'
  flfrc = 'diamond.fc'
/
